p cnf 66 165
c t mc
3 -1 0
3 2 0
1 -2 -3 0
5 -3 0
5 -4 0
3 4 -5 0
7 -6 0
7 4 0
6 -4 -7 0
-1 7 -8 0
1 -7 -8 0
-1 -7 8 0
1 7 8 0
-11 9 0
-11 10 0
-9 -10 11 0
-12 -13 -14 0
12 13 -14 0
-12 13 14 0
12 -13 14 0
15 11 0
15 14 0
-11 -14 -15 0
-15 -16 -17 0
15 16 -17 0
-15 16 17 0
15 -16 17 0
19 18 0
19 -4 0
-18 4 -19 0
20 -12 0
20 19 0
12 -19 -20 0
-21 -17 0
-21 -20 0
17 20 21 0
-22 -8 0
-22 -21 0
8 21 22 0
5 -22 -23 0
-5 22 -23 0
5 22 23 0
-5 -22 23 0
26 -24 0
26 25 0
24 -25 -26 0
27 -4 0
27 13 0
4 -13 -27 0
-29 27 0
-29 -28 0
-27 28 29 0
30 -27 0
30 -29 0
27 29 -30 0
-4 -31 -32 0
4 31 -32 0
-4 31 32 0
4 -31 32 0
32 33 -34 0
-32 -33 -34 0
32 -33 34 0
-32 33 34 0
-35 -30 0
-35 -34 0
30 34 35 0
-37 14 0
-37 36 0
-14 -36 37 0
19 -38 -39 0
-19 38 -39 0
19 38 39 0
-19 -38 39 0
41 -40 0
41 -12 0
40 12 -41 0
-42 -39 0
-42 41 0
39 -41 42 0
-43 37 0
-43 -42 0
-37 42 43 0
44 -6 0
44 16 0
6 -16 -44 0
44 -7 -45 0
-44 7 -45 0
44 7 45 0
-44 -7 45 0
-46 13 0
-46 -33 0
-13 33 46 0
47 28 0
47 46 0
-28 -46 -47 0
-48 -47 0
-48 -19 0
47 19 48 0
49 -36 0
49 -44 0
36 44 -49 0
-51 49 0
-51 -50 0
-49 50 51 0
-52 28 0
-52 -51 0
-28 51 52 0
48 -52 -53 0
-48 52 -53 0
48 52 53 0
-48 -52 53 0
-54 -45 0
-54 53 0
45 -53 54 0
-55 -12 0
-55 10 0
12 -10 55 0
56 19 0
56 -1 0
-19 1 -56 0
-58 56 0
-58 -57 0
-56 57 58 0
55 58 -59 0
-55 -58 -59 0
55 -58 59 0
-55 58 59 0
60 54 0
60 59 0
-54 -59 -60 0
-61 -43 0
-61 -60 0
43 60 61 0
62 35 0
62 61 0
-35 -61 -62 0
-63 26 0
-63 62 0
-26 -62 63 0
-64 23 0
-64 63 0
-23 -63 64 0
-65 51 0
-65 -9 0
-51 9 65 0
-64 -65 -66 0
64 65 -66 0
-64 65 66 0
64 -65 66 0
10 20 -5 -19 50 0
-45 -17 60 -30 -5 41 51 0
-58 -35 -29 57 63 -44 62 -9 8 6 0
-26 50 -24 -46 7 0
10 29 50 -49 0
27 -56 18 -23 -59 39 0
21 -4 42 8 0
13 57 -48 2 0
-13 51 0
-33 -60 0
21 -17 -44 5 6 56 -15 0
58 -39 -35 -53 54 -22 1 20 0
-17 -15 49 -18 0
40 39 61 -16 -25 -49 66 57 64 4 0
-45 46 14 -17 -13 0
66 0
